TCS_Benchmarks/redos_fix/snort1_output_distinct_47_46_1_0.txt
([^>]+)(\s*)
([^>]+)([eE][nN][cC][oO][dD][iI][nN][gG])(\s*)